100 20 100
47 74 66 69 18 36 68 6 73 70 47 23 96 27 5 94 98 11 3 89 46 28 18 95 76 73 42 51 29 83 55 29 57 21 98 27 10 18 86 35 89 85 59 37 13 16 83 11 28 38 52 74 66 23 21 95 96 63 46 78 46 53 7 56 27 57 35 89 75 21 24 16 7 35 53 20 52 88 83 80 27 87 6 93 10 27 88 7 90 87 85 88 40 44 44 67 1 80 8 28 
